c NETGEN flow network generator (C version)
c  Problem  1 input parameters
c  ---------------------------
c   Random seed:          1229717148
c   Number of nodes:              12
c   Source nodes:                  1
c   Sink nodes:                    1
c   Number of arcs:               50
c   Minimum arc cost:              1
c   Maximum arc cost:             37
c   Total supply:                448
c   Transshipment -
c     Sources:                     0
c     Sinks:                       0
c   Skeleton arcs -
c     With max cost:               0%
c     Capacitated:               100%
c   Minimum arc capacity:         35
c   Maximum arc capacity:        161
c
c  *** Minimum cost flow ***
c
p min 12 50
n 1 228
n 12 -228
a 1 2 0 228 29
a 1 7 0 49 33
a 2 4 0 228 1
a 2 8 0 55 16
a 2 12 0 151 20
a 2 9 0 46 12
a 2 5 0 148 17
a 3 12 0 228 19
a 3 7 0 74 27
a 4 6 0 228 32
a 4 8 0 85 12
a 5 1 0 228 17
a 5 10 0 228 19
a 5 8 0 65 1
a 5 3 0 56 13
a 5 2 0 133 8
a 5 11 0 111 17
a 6 8 0 228 29
a 6 5 0 156 13
a 6 9 0 134 33
a 6 4 0 83 13
a 6 11 0 152 14
a 6 12 0 82 2
a 6 7 0 95 27
a 6 2 0 52 36
a 6 10 0 153 26
a 7 11 0 228 24
a 7 2 0 56 24
a 7 4 0 102 27
a 7 10 0 45 14
a 7 5 0 73 35
a 7 3 0 59 9
a 7 12 0 100 13
a 8 5 0 228 5
a 8 4 0 118 13
a 8 12 0 138 18
a 8 3 0 92 29
a 9 7 0 228 33
a 9 3 0 118 1
a 10 9 0 228 22
a 10 3 0 110 21
a 10 2 0 129 25
a 10 5 0 35 25
a 10 6 0 56 17
a 10 7 0 88 5
a 10 4 0 61 35
a 10 8 0 101 26
a 11 3 0 228 37
a 11 4 0 158 14
a 11 10 0 102 34
